sat
(:added-eqs                       1888
 :arith-eq-adapter                260
 :arith-bound-propagations-lp     41
 :arith-conflicts                 308
 :arith-diseq                     184
 :arith-fixed-eqs                 38
 :arith-gcd-calls                 4
 :arith-grobner-calls             28
 :arith-grobner-conflicts         8
 :arith-horner-calls              6
 :arith-horner-cross-nested-forms 1604
 :arith-lower                     909
 :arith-make-feasible             692
 :arith-max-columns               702
 :arith-max-rows                  259
 :arith-nla-add-bounds            17
 :arith-nla-lemmas                91
 :arith-nla-propagate-bounds      211
 :arith-nla-propagate-eq          647
 :arith-nra-calls                 3
 :arith-offset-eqs                7
 :arith-patches                   4
 :arith-patches-success           4
 :arith-upper                     1578
 :binary-propagations             6236
 :card2bv-rewrites                1
 :conflicts                       36
 :decisions                       7639
 :del-clause                      164
 :elim-unconstrained              18
 :final-checks                    64
 :max-memory                      24.87
 :memory                          19.09
 :mk-bool-var                     1550
 :mk-clause                       544
 :mk-clause-binary                9552
 :nlsat-conflicts                 283
 :nlsat-decisions                 1
 :nlsat-propagations              19679
 :nlsat-restarts                  2
 :nlsat-stages                    11210
 :num-allocs                      23400265
 :num-checks                      1
 :propagations                    6887
 :rlimit-count                    441016
 :time                            0.16
 :total-time                      0.17)
